90 4005
1 2 175
1 3 196
1 4 25
1 5 67
1 6 211
1 7 103
1 8 185
1 9 23
1 10 72
1 11 42
1 12 218
1 13 167
1 14 68
1 15 0
1 16 75
1 17 250
1 18 6
1 19 44
1 20 191
1 21 152
1 22 183
1 23 112
1 24 251
1 25 189
1 26 201
1 27 38
1 28 260
1 29 137
1 30 195
1 31 72
1 32 257
1 33 192
1 34 92
1 35 252
1 36 71
1 37 10
1 38 233
1 39 151
1 40 92
1 41 247
1 42 224
1 43 149
1 44 67
1 45 219
1 46 19
1 47 4
1 48 33
1 49 123
1 50 185
1 51 229
1 52 130
1 53 83
1 54 21
1 55 119
1 56 67
1 57 203
1 58 47
1 59 12
1 60 107
1 61 233
1 62 110
1 63 142
1 64 124
1 65 35
1 66 260
1 67 250
1 68 54
1 69 43
1 70 215
1 71 39
1 72 131
1 73 136
1 74 54
1 75 166
1 76 198
1 77 149
1 78 44
1 79 135
1 80 209
1 81 197
1 82 100
1 83 180
1 84 169
1 85 29
1 86 252
1 87 190
1 88 214
1 89 226
1 90 12
2 3 134
2 4 106
2 5 110
2 6 234
2 7 17
2 8 5
2 9 49
2 10 105
2 11 182
2 12 175
2 13 87
2 14 149
2 15 260
2 16 76
2 17 233
2 18 262
2 19 225
2 20 85
2 21 158
2 22 247
2 23 183
2 24 121
2 25 76
2 26 199
2 27 85
2 28 186
2 29 230
2 30 63
2 31 35
2 32 77
2 33 117
2 34 215
2 35 161
2 36 45
2 37 116
2 38 45
2 39 42
2 40 95
2 41 183
2 42 230
2 43 265
2 44 269
2 45 1
2 46 208
2 47 48
2 48 153
2 49 161
2 50 255
2 51 64
2 52 266
2 53 27
2 54 156
2 55 8
2 56 247
2 57 100
2 58 254
2 59 7
2 60 241
2 61 143
2 62 128
2 63 210
2 64 231
2 65 176
2 66 44
2 67 9
2 68 176
2 69 127
2 70 5
2 71 144
2 72 11
2 73 160
2 74 36
2 75 69
2 76 93
2 77 49
2 78 223
2 79 135
2 80 92
2 81 178
2 82 176
2 83 47
2 84 126
2 85 211
2 86 105
2 87 77
2 88 24
2 89 67
2 90 49
3 4 33
3 5 68
3 6 230
3 7 95
3 8 125
3 9 251
3 10 61
3 11 78
3 12 76
3 13 122
3 14 8
3 15 180
3 16 94
3 17 207
3 18 184
3 19 181
3 20 34
3 21 268
3 22 260
3 23 44
3 24 184
3 25 149
3 26 121
3 27 18
3 28 247
3 29 5
3 30 133
3 31 157
3 32 246
3 33 68
3 34 238
3 35 102
3 36 205
3 37 88
3 38 91
3 39 16
3 40 133
3 41 104
3 42 93
3 43 73
3 44 183
3 45 206
3 46 190
3 47 37
3 48 241
3 49 265
3 50 163
3 51 15
3 52 160
3 53 198
3 54 212
3 55 33
3 56 21
3 57 267
3 58 139
3 59 36
3 60 237
3 61 171
3 62 253
3 63 199
3 64 263
3 65 126
3 66 227
3 67 33
3 68 264
3 69 207
3 70 81
3 71 103
3 72 72
3 73 152
3 74 268
3 75 177
3 76 226
3 77 195
3 78 124
3 79 96
3 80 218
3 81 203
3 82 129
3 83 211
3 84 43
3 85 178
3 86 194
3 87 111
3 88 136
3 89 250
3 90 62
4 5 84
4 6 160
4 7 254
4 8 237
4 9 195
4 10 28
4 11 181
4 12 79
4 13 102
4 14 41
4 15 268
4 16 164
4 17 197
4 18 59
4 19 131
4 20 165
4 21 86
4 22 174
4 23 14
4 24 147
4 25 178
4 26 69
4 27 216
4 28 267
4 29 26
4 30 80
4 31 195
4 32 4
4 33 104
4 34 135
4 35 234
4 36 112
4 37 258
4 38 72
4 39 4
4 40 0
4 41 180
4 42 113
4 43 20
4 44 124
4 45 31
4 46 49
4 47 234
4 48 150
4 49 158
4 50 114
4 51 162
4 52 84
4 53 79
4 54 0
4 55 226
4 56 163
4 57 119
4 58 118
4 59 156
4 60 173
4 61 214
4 62 87
4 63 243
4 64 11
4 65 93
4 66 170
4 67 250
4 68 166
4 69 90
4 70 145
4 71 144
4 72 71
4 73 118
4 74 56
4 75 245
4 76 260
4 77 254
4 78 174
4 79 67
4 80 240
4 81 215
4 82 172
4 83 31
4 84 40
4 85 122
4 86 187
4 87 255
4 88 28
4 89 7
4 90 43
5 6 133
5 7 213
5 8 89
5 9 180
5 10 89
5 11 21
5 12 102
5 13 107
5 14 165
5 15 68
5 16 150
5 17 32
5 18 226
5 19 10
5 20 163
5 21 38
5 22 112
5 23 0
5 24 82
5 25 262
5 26 258
5 27 14
5 28 174
5 29 77
5 30 169
5 31 154
5 32 103
5 33 23
5 34 183
5 35 207
5 36 257
5 37 103
5 38 42
5 39 47
5 40 84
5 41 200
5 42 174
5 43 27
5 44 206
5 45 150
5 46 116
5 47 89
5 48 117
5 49 189
5 50 30
5 51 106
5 52 76
5 53 249
5 54 248
5 55 88
5 56 155
5 57 17
5 58 52
5 59 4
5 60 89
5 61 221
5 62 101
5 63 254
5 64 223
5 65 58
5 66 3
5 67 248
5 68 231
5 69 62
5 70 0
5 71 120
5 72 79
5 73 245
5 74 100
5 75 44
5 76 141
5 77 96
5 78 116
5 79 55
5 80 182
5 81 235
5 82 193
5 83 231
5 84 55
5 85 219
5 86 104
5 87 55
5 88 41
5 89 91
5 90 217
6 7 149
6 8 236
6 9 202
6 10 37
6 11 177
6 12 210
6 13 226
6 14 77
6 15 62
6 16 47
6 17 69
6 18 40
6 19 65
6 20 32
6 21 180
6 22 199
6 23 29
6 24 76
6 25 0
6 26 229
6 27 2
6 28 119
6 29 52
6 30 266
6 31 136
6 32 119
6 33 115
6 34 112
6 35 70
6 36 263
6 37 16
6 38 252
6 39 2
6 40 132
6 41 29
6 42 229
6 43 191
6 44 192
6 45 213
6 46 107
6 47 239
6 48 218
6 49 221
6 50 207
6 51 132
6 52 149
6 53 238
6 54 155
6 55 85
6 56 5
6 57 173
6 58 151
6 59 194
6 60 52
6 61 2
6 62 199
6 63 101
6 64 71
6 65 251
6 66 188
6 67 233
6 68 114
6 69 169
6 70 212
6 71 261
6 72 255
6 73 79
6 74 260
6 75 8
6 76 65
6 77 20
6 78 258
6 79 174
6 80 77
6 81 264
6 82 139
6 83 64
6 84 10
6 85 120
6 86 31
6 87 31
6 88 265
6 89 221
6 90 66
7 8 203
7 9 121
7 10 191
7 11 81
7 12 133
7 13 111
7 14 166
7 15 50
7 16 142
7 17 120
7 18 209
7 19 261
7 20 124
7 21 124
7 22 22
7 23 238
7 24 225
7 25 51
7 26 177
7 27 16
7 28 115
7 29 147
7 30 210
7 31 0
7 32 12
7 33 45
7 34 174
7 35 250
7 36 202
7 37 89
7 38 88
7 39 32
7 40 39
7 41 176
7 42 122
7 43 39
7 44 27
7 45 241
7 46 240
7 47 258
7 48 209
7 49 184
7 50 129
7 51 242
7 52 30
7 53 215
7 54 240
7 55 100
7 56 80
7 57 69
7 58 180
7 59 167
7 60 237
7 61 218
7 62 250
7 63 127
7 64 77
7 65 88
7 66 121
7 67 112
7 68 129
7 69 202
7 70 48
7 71 2
7 72 159
7 73 15
7 74 173
7 75 249
7 76 84
7 77 150
7 78 31
7 79 177
7 80 238
7 81 96
7 82 7
7 83 256
7 84 158
7 85 250
7 86 192
7 87 232
7 88 258
7 89 198
7 90 162
8 9 177
8 10 77
8 11 246
8 12 28
8 13 190
8 14 148
8 15 145
8 16 87
8 17 14
8 18 16
8 19 145
8 20 135
8 21 242
8 22 35
8 23 158
8 24 73
8 25 185
8 26 45
8 27 137
8 28 129
8 29 16
8 30 143
8 31 106
8 32 218
8 33 121
8 34 35
8 35 19
8 36 69
8 37 66
8 38 232
8 39 31
8 40 11
8 41 214
8 42 21
8 43 255
8 44 43
8 45 1
8 46 142
8 47 82
8 48 163
8 49 138
8 50 226
8 51 122
8 52 177
8 53 6
8 54 266
8 55 174
8 56 117
8 57 7
8 58 221
8 59 106
8 60 173
8 61 44
8 62 200
8 63 217
8 64 31
8 65 88
8 66 78
8 67 57
8 68 10
8 69 74
8 70 127
8 71 234
8 72 49
8 73 29
8 74 8
8 75 254
8 76 112
8 77 249
8 78 87
8 79 255
8 80 62
8 81 223
8 82 230
8 83 49
8 84 61
8 85 112
8 86 197
8 87 80
8 88 163
8 89 26
8 90 85
9 10 196
9 11 210
9 12 225
9 13 3
9 14 191
9 15 259
9 16 49
9 17 134
9 18 86
9 19 199
9 20 77
9 21 102
9 22 196
9 23 57
9 24 208
9 25 36
9 26 75
9 27 211
9 28 200
9 29 104
9 30 131
9 31 153
9 32 130
9 33 161
9 34 105
9 35 107
9 36 222
9 37 25
9 38 244
9 39 235
9 40 24
9 41 223
9 42 61
9 43 74
9 44 58
9 45 239
9 46 31
9 47 153
9 48 86
9 49 95
9 50 94
9 51 183
9 52 156
9 53 36
9 54 208
9 55 173
9 56 21
9 57 258
9 58 149
9 59 29
9 60 4
9 61 149
9 62 49
9 63 212
9 64 47
9 65 8
9 66 71
9 67 22
9 68 166
9 69 269
9 70 269
9 71 80
9 72 6
9 73 156
9 74 38
9 75 62
9 76 132
9 77 103
9 78 56
9 79 42
9 80 195
9 81 211
9 82 94
9 83 191
9 84 74
9 85 264
9 86 168
9 87 130
9 88 171
9 89 31
9 90 69
10 11 70
10 12 72
10 13 167
10 14 147
10 15 231
10 16 171
10 17 229
10 18 85
10 19 176
10 20 52
10 21 161
10 22 221
10 23 138
10 24 248
10 25 147
10 26 89
10 27 149
10 28 212
10 29 238
10 30 23
10 31 3
10 32 105
10 33 93
10 34 26
10 35 85
10 36 87
10 37 62
10 38 224
10 39 79
10 40 106
10 41 201
10 42 35
10 43 144
10 44 160
10 45 140
10 46 11
10 47 191
10 48 157
10 49 163
10 50 16
10 51 149
10 52 162
10 53 52
10 54 202
10 55 91
10 56 121
10 57 181
10 58 22
10 59 91
10 60 3
10 61 205
10 62 73
10 63 14
10 64 77
10 65 158
10 66 103
10 67 232
10 68 224
10 69 195
10 70 133
10 71 183
10 72 225
10 73 136
10 74 221
10 75 269
10 76 239
10 77 39
10 78 235
10 79 102
10 80 29
10 81 225
10 82 12
10 83 57
10 84 168
10 85 120
10 86 65
10 87 85
10 88 219
10 89 41
10 90 220
11 12 97
11 13 268
11 14 134
11 15 123
11 16 54
11 17 237
11 18 153
11 19 214
11 20 209
11 21 48
11 22 166
11 23 182
11 24 221
11 25 96
11 26 70
11 27 124
11 28 208
11 29 184
11 30 1
11 31 30
11 32 209
11 33 59
11 34 115
11 35 83
11 36 106
11 37 156
11 38 261
11 39 148
11 40 40
11 41 45
11 42 53
11 43 81
11 44 265
11 45 121
11 46 38
11 47 256
11 48 136
11 49 125
11 50 220
11 51 92
11 52 224
11 53 209
11 54 225
11 55 135
11 56 132
11 57 69
11 58 47
11 59 229
11 60 30
11 61 61
11 62 0
11 63 39
11 64 56
11 65 67
11 66 84
11 67 132
11 68 6
11 69 165
11 70 244
11 71 134
11 72 6
11 73 52
11 74 174
11 75 48
11 76 122
11 77 143
11 78 109
11 79 235
11 80 79
11 81 245
11 82 157
11 83 180
11 84 131
11 85 155
11 86 144
11 87 246
11 88 187
11 89 80
11 90 240
12 13 77
12 14 250
12 15 18
12 16 265
12 17 126
12 18 265
12 19 130
12 20 68
12 21 258
12 22 194
12 23 152
12 24 253
12 25 254
12 26 216
12 27 174
12 28 180
12 29 122
12 30 202
12 31 199
12 32 19
12 33 126
12 34 130
12 35 201
12 36 213
12 37 181
12 38 175
12 39 136
12 40 159
12 41 85
12 42 216
12 43 67
12 44 54
12 45 22
12 46 163
12 47 264
12 48 22
12 49 171
12 50 173
12 51 170
12 52 260
12 53 250
12 54 80
12 55 130
12 56 69
12 57 175
12 58 55
12 59 93
12 60 152
12 61 212
12 62 61
12 63 123
12 64 88
12 65 69
12 66 105
12 67 68
12 68 148
12 69 191
12 70 159
12 71 238
12 72 32
12 73 93
12 74 202
12 75 119
12 76 151
12 77 85
12 78 166
12 79 264
12 80 10
12 81 30
12 82 55
12 83 128
12 84 165
12 85 100
12 86 213
12 87 161
12 88 87
12 89 261
12 90 104
13 14 258
13 15 261
13 16 139
13 17 61
13 18 47
13 19 38
13 20 97
13 21 174
13 22 20
13 23 184
13 24 68
13 25 61
13 26 262
13 27 151
13 28 207
13 29 176
13 30 93
13 31 164
13 32 135
13 33 47
13 34 109
13 35 252
13 36 126
13 37 69
13 38 112
13 39 216
13 40 61
13 41 242
13 42 170
13 43 182
13 44 89
13 45 120
13 46 22
13 47 208
13 48 76
13 49 255
13 50 26
13 51 244
13 52 165
13 53 214
13 54 193
13 55 159
13 56 41
13 57 46
13 58 220
13 59 252
13 60 260
13 61 176
13 62 91
13 63 177
13 64 218
13 65 137
13 66 26
13 67 242
13 68 68
13 69 110
13 70 24
13 71 249
13 72 1
13 73 19
13 74 82
13 75 88
13 76 245
13 77 256
13 78 184
13 79 207
13 80 126
13 81 202
13 82 215
13 83 34
13 84 52
13 85 269
13 86 90
13 87 15
13 88 235
13 89 214
13 90 129
14 15 213
14 16 228
14 17 142
14 18 8
14 19 92
14 20 19
14 21 131
14 22 73
14 23 151
14 24 171
14 25 65
14 26 23
14 27 219
14 28 238
14 29 59
14 30 210
14 31 159
14 32 84
14 33 259
14 34 180
14 35 39
14 36 90
14 37 54
14 38 118
14 39 26
14 40 59
14 41 216
14 42 219
14 43 17
14 44 75
14 45 226
14 46 55
14 47 198
14 48 73
14 49 120
14 50 266
14 51 77
14 52 254
14 53 163
14 54 133
14 55 132
14 56 139
14 57 50
14 58 48
14 59 137
14 60 132
14 61 27
14 62 189
14 63 153
14 64 130
14 65 16
14 66 65
14 67 218
14 68 67
14 69 186
14 70 161
14 71 186
14 72 63
14 73 113
14 74 142
14 75 243
14 76 193
14 77 164
14 78 21
14 79 117
14 80 118
14 81 53
14 82 267
14 83 177
14 84 65
14 85 136
14 86 114
14 87 99
14 88 89
14 89 74
14 90 88
15 16 96
15 17 260
15 18 24
15 19 115
15 20 102
15 21 61
15 22 25
15 23 73
15 24 112
15 25 246
15 26 63
15 27 265
15 28 244
15 29 187
15 30 94
15 31 55
15 32 69
15 33 13
15 34 131
15 35 147
15 36 236
15 37 9
15 38 138
15 39 43
15 40 230
15 41 188
15 42 258
15 43 92
15 44 167
15 45 248
15 46 187
15 47 12
15 48 144
15 49 30
15 50 136
15 51 98
15 52 215
15 53 151
15 54 3
15 55 213
15 56 186
15 57 145
15 58 177
15 59 41
15 60 224
15 61 28
15 62 78
15 63 266
15 64 199
15 65 56
15 66 66
15 67 209
15 68 92
15 69 154
15 70 210
15 71 103
15 72 60
15 73 235
15 74 128
15 75 82
15 76 144
15 77 62
15 78 134
15 79 249
15 80 48
15 81 101
15 82 263
15 83 54
15 84 42
15 85 59
15 86 219
15 87 163
15 88 22
15 89 17
15 90 25
16 17 134
16 18 93
16 19 246
16 20 112
16 21 189
16 22 202
16 23 81
16 24 265
16 25 111
16 26 201
16 27 211
16 28 77
16 29 222
16 30 145
16 31 266
16 32 128
16 33 226
16 34 105
16 35 250
16 36 19
16 37 43
16 38 164
16 39 95
16 40 64
16 41 101
16 42 15
16 43 230
16 44 133
16 45 168
16 46 40
16 47 109
16 48 138
16 49 93
16 50 109
16 51 158
16 52 3
16 53 45
16 54 113
16 55 235
16 56 62
16 57 156
16 58 256
16 59 81
16 60 194
16 61 193
16 62 1
16 63 243
16 64 132
16 65 227
16 66 227
16 67 223
16 68 88
16 69 65
16 70 235
16 71 134
16 72 46
16 73 105
16 74 4
16 75 30
16 76 18
16 77 116
16 78 84
16 79 167
16 80 225
16 81 130
16 82 30
16 83 35
16 84 95
16 85 19
16 86 129
16 87 6
16 88 222
16 89 235
16 90 155
17 18 113
17 19 40
17 20 166
17 21 136
17 22 228
17 23 74
17 24 94
17 25 21
17 26 223
17 27 69
17 28 235
17 29 220
17 30 29
17 31 23
17 32 23
17 33 141
17 34 134
17 35 136
17 36 80
17 37 26
17 38 76
17 39 111
17 40 264
17 41 136
17 42 41
17 43 197
17 44 45
17 45 224
17 46 21
17 47 96
17 48 109
17 49 146
17 50 102
17 51 153
17 52 202
17 53 253
17 54 83
17 55 151
17 56 119
17 57 264
17 58 52
17 59 135
17 60 104
17 61 81
17 62 64
17 63 261
17 64 249
17 65 73
17 66 36
17 67 180
17 68 249
17 69 44
17 70 236
17 71 143
17 72 64
17 73 199
17 74 207
17 75 186
17 76 66
17 77 257
17 78 148
17 79 230
17 80 77
17 81 171
17 82 109
17 83 67
17 84 199
17 85 269
17 86 197
17 87 114
17 88 167
17 89 147
17 90 231
18 19 144
18 20 263
18 21 123
18 22 246
18 23 207
18 24 160
18 25 105
18 26 84
18 27 185
18 28 231
18 29 56
18 30 224
18 31 162
18 32 137
18 33 174
18 34 113
18 35 142
18 36 128
18 37 160
18 38 102
18 39 10
18 40 166
18 41 190
18 42 219
18 43 10
18 44 91
18 45 205
18 46 115
18 47 149
18 48 171
18 49 261
18 50 143
18 51 96
18 52 76
18 53 20
18 54 47
18 55 257
18 56 188
18 57 138
18 58 184
18 59 65
18 60 268
18 61 10
18 62 10
18 63 177
18 64 202
18 65 108
18 66 169
18 67 105
18 68 67
18 69 73
18 70 37
18 71 243
18 72 31
18 73 98
18 74 238
18 75 125
18 76 55
18 77 176
18 78 111
18 79 127
18 80 115
18 81 9
18 82 130
18 83 265
18 84 70
18 85 178
18 86 181
18 87 92
18 88 108
18 89 33
18 90 107
19 20 214
19 21 129
19 22 157
19 23 117
19 24 162
19 25 183
19 26 175
19 27 45
19 28 23
19 29 229
19 30 8
19 31 189
19 32 136
19 33 114
19 34 203
19 35 180
19 36 113
19 37 55
19 38 180
19 39 21
19 40 56
19 41 253
19 42 173
19 43 137
19 44 170
19 45 166
19 46 224
19 47 74
19 48 95
19 49 202
19 50 132
19 51 22
19 52 81
19 53 49
19 54 41
19 55 252
19 56 76
19 57 87
19 58 162
19 59 40
19 60 134
19 61 149
19 62 130
19 63 210
19 64 23
19 65 264
19 66 252
19 67 29
19 68 154
19 69 44
19 70 37
19 71 102
19 72 243
19 73 45
19 74 140
19 75 82
19 76 173
19 77 3
19 78 79
19 79 180
19 80 17
19 81 123
19 82 64
19 83 95
19 84 87
19 85 174
19 86 218
19 87 233
19 88 102
19 89 130
19 90 62
20 21 119
20 22 45
20 23 18
20 24 172
20 25 96
20 26 223
20 27 20
20 28 195
20 29 71
20 30 62
20 31 203
20 32 31
20 33 16
20 34 132
20 35 3
20 36 251
20 37 52
20 38 123
20 39 24
20 40 3
20 41 70
20 42 9
20 43 109
20 44 27
20 45 269
20 46 207
20 47 79
20 48 68
20 49 108
20 50 248
20 51 140
20 52 168
20 53 213
20 54 73
20 55 158
20 56 58
20 57 114
20 58 36
20 59 247
20 60 148
20 61 102
20 62 165
20 63 31
20 64 91
20 65 4
20 66 249
20 67 4
20 68 102
20 69 118
20 70 267
20 71 264
20 72 122
20 73 259
20 74 199
20 75 209
20 76 82
20 77 9
20 78 210
20 79 31
20 80 191
20 81 14
20 82 197
20 83 140
20 84 74
20 85 28
20 86 197
20 87 164
20 88 97
20 89 95
20 90 113
21 22 18
21 23 245
21 24 208
21 25 21
21 26 92
21 27 67
21 28 134
21 29 61
21 30 83
21 31 130
21 32 128
21 33 91
21 34 100
21 35 209
21 36 6
21 37 113
21 38 264
21 39 215
21 40 227
21 41 29
21 42 46
21 43 173
21 44 176
21 45 157
21 46 174
21 47 169
21 48 184
21 49 85
21 50 59
21 51 266
21 52 54
21 53 75
21 54 177
21 55 10
21 56 250
21 57 159
21 58 260
21 59 77
21 60 174
21 61 237
21 62 134
21 63 40
21 64 129
21 65 268
21 66 18
21 67 61
21 68 138
21 69 244
21 70 65
21 71 124
21 72 41
21 73 44
21 74 48
21 75 101
21 76 65
21 77 135
21 78 182
21 79 185
21 80 9
21 81 155
21 82 269
21 83 52
21 84 142
21 85 183
21 86 189
21 87 177
21 88 32
21 89 226
21 90 7
22 23 43
22 24 29
22 25 127
22 26 74
22 27 242
22 28 243
22 29 250
22 30 99
22 31 39
22 32 254
22 33 19
22 34 139
22 35 114
22 36 64
22 37 32
22 38 83
22 39 97
22 40 52
22 41 61
22 42 190
22 43 6
22 44 211
22 45 177
22 46 154
22 47 30
22 48 256
22 49 79
22 50 10
22 51 46
22 52 210
22 53 51
22 54 168
22 55 39
22 56 117
22 57 249
22 58 237
22 59 20
22 60 32
22 61 174
22 62 220
22 63 134
22 64 64
22 65 242
22 66 266
22 67 117
22 68 132
22 69 12
22 70 100
22 71 132
22 72 82
22 73 268
22 74 136
22 75 22
22 76 127
22 77 109
22 78 67
22 79 159
22 80 64
22 81 86
22 82 64
22 83 169
22 84 118
22 85 138
22 86 153
22 87 105
22 88 209
22 89 204
22 90 141
23 24 173
23 25 4
23 26 265
23 27 62
23 28 229
23 29 165
23 30 269
23 31 152
23 32 232
23 33 93
23 34 266
23 35 46
23 36 57
23 37 103
23 38 263
23 39 202
23 40 145
23 41 209
23 42 13
23 43 103
23 44 65
23 45 240
23 46 90
23 47 159
23 48 240
23 49 3
23 50 199
23 51 14
23 52 175
23 53 71
23 54 13
23 55 128
23 56 243
23 57 197
23 58 216
23 59 200
23 60 86
23 61 107
23 62 232
23 63 85
23 64 10
23 65 27
23 66 113
23 67 164
23 68 200
23 69 139
23 70 114
23 71 64
23 72 41
23 73 202
23 74 206
23 75 108
23 76 222
23 77 157
23 78 78
23 79 123
23 80 7
23 81 3
23 82 188
23 83 34
23 84 170
23 85 118
23 86 32
23 87 81
23 88 153
23 89 258
23 90 51
24 25 16
24 26 23
24 27 112
24 28 215
24 29 66
24 30 149
24 31 244
24 32 196
24 33 92
24 34 6
24 35 84
24 36 9
24 37 58
24 38 249
24 39 23
24 40 94
24 41 261
24 42 73
24 43 238
24 44 199
24 45 42
24 46 7
24 47 5
24 48 37
24 49 0
24 50 248
24 51 160
24 52 266
24 53 269
24 54 92
24 55 116
24 56 170
24 57 258
24 58 12
24 59 262
24 60 181
24 61 33
24 62 239
24 63 244
24 64 103
24 65 115
24 66 54
24 67 152
24 68 198
24 69 17
24 70 173
24 71 89
24 72 183
24 73 250
24 74 221
24 75 72
24 76 153
24 77 245
24 78 192
24 79 36
24 80 174
24 81 5
24 82 47
24 83 215
24 84 57
24 85 40
24 86 137
24 87 3
24 88 58
24 89 38
24 90 263
25 26 253
25 27 169
25 28 50
25 29 150
25 30 34
25 31 6
25 32 129
25 33 75
25 34 149
25 35 221
25 36 114
25 37 121
25 38 193
25 39 32
25 40 130
25 41 14
25 42 137
25 43 211
25 44 192
25 45 143
25 46 74
25 47 102
25 48 198
25 49 264
25 50 263
25 51 217
25 52 4
25 53 76
25 54 61
25 55 147
25 56 44
25 57 240
25 58 213
25 59 51
25 60 148
25 61 237
25 62 44
25 63 61
25 64 133
25 65 128
25 66 214
25 67 132
25 68 246
25 69 225
25 70 58
25 71 135
25 72 217
25 73 49
25 74 85
25 75 17
25 76 32
25 77 11
25 78 207
25 79 49
25 80 246
25 81 213
25 82 119
25 83 253
25 84 20
25 85 48
25 86 202
25 87 1
25 88 238
25 89 211
25 90 86
26 27 237
26 28 5
26 29 38
26 30 143
26 31 223
26 32 259
26 33 140
26 34 111
26 35 204
26 36 132
26 37 212
26 38 17
26 39 122
26 40 43
26 41 240
26 42 210
26 43 42
26 44 42
26 45 268
26 46 209
26 47 177
26 48 257
26 49 63
26 50 154
26 51 64
26 52 51
26 53 210
26 54 49
26 55 90
26 56 218
26 57 192
26 58 192
26 59 153
26 60 178
26 61 267
26 62 179
26 63 160
26 64 21
26 65 214
26 66 116
26 67 159
26 68 138
26 69 247
26 70 104
26 71 32
26 72 189
26 73 182
26 74 79
26 75 191
26 76 262
26 77 110
26 78 171
26 79 23
26 80 235
26 81 21
26 82 232
26 83 102
26 84 103
26 85 16
26 86 191
26 87 53
26 88 46
26 89 253
26 90 173
27 28 9
27 29 138
27 30 253
27 31 122
27 32 25
27 33 165
27 34 269
27 35 46
27 36 250
27 37 267
27 38 251
27 39 19
27 40 235
27 41 166
27 42 162
27 43 219
27 44 49
27 45 63
27 46 209
27 47 170
27 48 232
27 49 269
27 50 194
27 51 135
27 52 210
27 53 131
27 54 65
27 55 241
27 56 247
27 57 261
27 58 243
27 59 67
27 60 238
27 61 50
27 62 108
27 63 243
27 64 167
27 65 68
27 66 260
27 67 115
27 68 60
27 69 119
27 70 16
27 71 0
27 72 149
27 73 253
27 74 24
27 75 114
27 76 26
27 77 35
27 78 247
27 79 67
27 80 263
27 81 18
27 82 197
27 83 83
27 84 245
27 85 88
27 86 40
27 87 204
27 88 76
27 89 252
27 90 226
28 29 135
28 30 116
28 31 201
28 32 14
28 33 43
28 34 5
28 35 253
28 36 241
28 37 265
28 38 77
28 39 207
28 40 133
28 41 164
28 42 25
28 43 23
28 44 78
28 45 197
28 46 138
28 47 87
28 48 199
28 49 86
28 50 260
28 51 241
28 52 166
28 53 178
28 54 123
28 55 64
28 56 216
28 57 157
28 58 1
28 59 226
28 60 229
28 61 71
28 62 209
28 63 96
28 64 154
28 65 37
28 66 215
28 67 185
28 68 243
28 69 28
28 70 100
28 71 59
28 72 65
28 73 10
28 74 177
28 75 10
28 76 268
28 77 179
28 78 202
28 79 36
28 80 113
28 81 46
28 82 264
28 83 82
28 84 169
28 85 161
28 86 22
28 87 222
28 88 237
28 89 175
28 90 133
29 30 36
29 31 99
29 32 266
29 33 216
29 34 142
29 35 76
29 36 106
29 37 260
29 38 201
29 39 169
29 40 205
29 41 166
29 42 25
29 43 36
29 44 169
29 45 249
29 46 151
29 47 66
29 48 211
29 49 197
29 50 230
29 51 167
29 52 108
29 53 149
29 54 99
29 55 90
29 56 173
29 57 29
29 58 214
29 59 268
29 60 42
29 61 143
29 62 23
29 63 60
29 64 21
29 65 56
29 66 86
29 67 227
29 68 161
29 69 100
29 70 141
29 71 99
29 72 2
29 73 128
29 74 239
29 75 266
29 76 241
29 77 175
29 78 67
29 79 222
29 80 190
29 81 57
29 82 22
29 83 24
29 84 170
29 85 176
29 86 237
29 87 117
29 88 160
29 89 108
29 90 234
30 31 205
30 32 16
30 33 59
30 34 207
30 35 100
30 36 103
30 37 54
30 38 83
30 39 179
30 40 93
30 41 218
30 42 237
30 43 24
30 44 31
30 45 209
30 46 247
30 47 8
30 48 88
30 49 183
30 50 264
30 51 184
30 52 15
30 53 269
30 54 230
30 55 167
30 56 118
30 57 48
30 58 71
30 59 30
30 60 183
30 61 24
30 62 19
30 63 129
30 64 263
30 65 146
30 66 255
30 67 65
30 68 166
30 69 70
30 70 110
30 71 27
30 72 114
30 73 172
30 74 75
30 75 7
30 76 247
30 77 262
30 78 129
30 79 224
30 80 49
30 81 152
30 82 43
30 83 10
30 84 188
30 85 105
30 86 190
30 87 202
30 88 207
30 89 164
30 90 113
31 32 185
31 33 58
31 34 71
31 35 239
31 36 106
31 37 100
31 38 252
31 39 239
31 40 236
31 41 149
31 42 66
31 43 218
31 44 46
31 45 70
31 46 101
31 47 203
31 48 11
31 49 26
31 50 23
31 51 174
31 52 103
31 53 17
31 54 52
31 55 31
31 56 21
31 57 116
31 58 119
31 59 68
31 60 216
31 61 204
31 62 147
31 63 248
31 64 189
31 65 74
31 66 144
31 67 258
31 68 195
31 69 256
31 70 59
31 71 210
31 72 102
31 73 210
31 74 259
31 75 33
31 76 89
31 77 43
31 78 247
31 79 85
31 80 4
31 81 226
31 82 25
31 83 107
31 84 233
31 85 99
31 86 10
31 87 191
31 88 221
31 89 216
31 90 158
32 33 86
32 34 61
32 35 154
32 36 12
32 37 127
32 38 65
32 39 71
32 40 103
32 41 221
32 42 122
32 43 199
32 44 100
32 45 243
32 46 267
32 47 7
32 48 12
32 49 170
32 50 16
32 51 111
32 52 119
32 53 119
32 54 154
32 55 247
32 56 96
32 57 227
32 58 56
32 59 237
32 60 107
32 61 178
32 62 229
32 63 104
32 64 142
32 65 235
32 66 249
32 67 31
32 68 41
32 69 85
32 70 168
32 71 189
32 72 173
32 73 217
32 74 152
32 75 212
32 76 114
32 77 74
32 78 205
32 79 74
32 80 199
32 81 201
32 82 240
32 83 3
32 84 203
32 85 114
32 86 269
32 87 32
32 88 139
32 89 226
32 90 81
33 34 157
33 35 88
33 36 218
33 37 78
33 38 215
33 39 38
33 40 101
33 41 263
33 42 263
33 43 53
33 44 198
33 45 130
33 46 30
33 47 268
33 48 11
33 49 228
33 50 56
33 51 140
33 52 51
33 53 92
33 54 14
33 55 107
33 56 208
33 57 43
33 58 18
33 59 53
33 60 3
33 61 32
33 62 226
33 63 242
33 64 134
33 65 179
33 66 159
33 67 144
33 68 176
33 69 57
33 70 13
33 71 99
33 72 21
33 73 27
33 74 200
33 75 70
33 76 170
33 77 26
33 78 207
33 79 161
33 80 233
33 81 84
33 82 180
33 83 149
33 84 234
33 85 241
33 86 240
33 87 133
33 88 74
33 89 128
33 90 157
34 35 111
34 36 74
34 37 21
34 38 69
34 39 48
34 40 203
34 41 16
34 42 106
34 43 55
34 44 79
34 45 20
34 46 23
34 47 180
34 48 49
34 49 241
34 50 76
34 51 16
34 52 167
34 53 1
34 54 84
34 55 112
34 56 178
34 57 24
34 58 222
34 59 256
34 60 96
34 61 131
34 62 252
34 63 227
34 64 266
34 65 127
34 66 61
34 67 17
34 68 214
34 69 268
34 70 168
34 71 193
34 72 44
34 73 88
34 74 261
34 75 55
34 76 173
34 77 137
34 78 3
34 79 33
34 80 23
34 81 234
34 82 43
34 83 242
34 84 127
34 85 240
34 86 146
34 87 58
34 88 105
34 89 101
34 90 135
35 36 253
35 37 263
35 38 106
35 39 231
35 40 145
35 41 204
35 42 251
35 43 207
35 44 68
35 45 42
35 46 101
35 47 10
35 48 193
35 49 188
35 50 67
35 51 207
35 52 49
35 53 120
35 54 20
35 55 61
35 56 134
35 57 138
35 58 195
35 59 118
35 60 59
35 61 80
35 62 247
35 63 35
35 64 69
35 65 166
35 66 27
35 67 206
35 68 56
35 69 132
35 70 43
35 71 212
35 72 13
35 73 178
35 74 213
35 75 42
35 76 224
35 77 237
35 78 9
35 79 67
35 80 29
35 81 41
35 82 185
35 83 215
35 84 116
35 85 243
35 86 180
35 87 159
35 88 167
35 89 180
35 90 77
36 37 235
36 38 144
36 39 244
36 40 140
36 41 121
36 42 134
36 43 36
36 44 133
36 45 187
36 46 257
36 47 116
36 48 66
36 49 32
36 50 63
36 51 247
36 52 126
36 53 197
36 54 61
36 55 125
36 56 214
36 57 85
36 58 14
36 59 202
36 60 242
36 61 245
36 62 132
36 63 190
36 64 46
36 65 176
36 66 258
36 67 34
36 68 136
36 69 233
36 70 118
36 71 144
36 72 114
36 73 203
36 74 8
36 75 46
36 76 179
36 77 64
36 78 151
36 79 204
36 80 266
36 81 102
36 82 97
36 83 125
36 84 90
36 85 65
36 86 207
36 87 60
36 88 116
36 89 123
36 90 111
37 38 141
37 39 108
37 40 255
37 41 118
37 42 116
37 43 97
37 44 242
37 45 69
37 46 117
37 47 130
37 48 100
37 49 243
37 50 16
37 51 146
37 52 163
37 53 207
37 54 205
37 55 80
37 56 223
37 57 26
37 58 40
37 59 46
37 60 265
37 61 169
37 62 209
37 63 202
37 64 128
37 65 110
37 66 108
37 67 46
37 68 178
37 69 67
37 70 260
37 71 200
37 72 163
37 73 17
37 74 181
37 75 91
37 76 141
37 77 85
37 78 167
37 79 212
37 80 99
37 81 233
37 82 252
37 83 253
37 84 135
37 85 217
37 86 42
37 87 160
37 88 61
37 89 120
37 90 127
38 39 183
38 40 237
38 41 179
38 42 172
38 43 214
38 44 16
38 45 224
38 46 159
38 47 188
38 48 238
38 49 70
38 50 161
38 51 260
38 52 17
38 53 124
38 54 46
38 55 12
38 56 115
38 57 190
38 58 134
38 59 131
38 60 121
38 61 223
38 62 5
38 63 15
38 64 131
38 65 64
38 66 137
38 67 60
38 68 263
38 69 205
38 70 251
38 71 40
38 72 102
38 73 119
38 74 70
38 75 187
38 76 131
38 77 208
38 78 142
38 79 93
38 80 17
38 81 30
38 82 0
38 83 63
38 84 242
38 85 107
38 86 59
38 87 178
38 88 99
38 89 186
38 90 127
39 40 71
39 41 267
39 42 102
39 43 142
39 44 175
39 45 208
39 46 216
39 47 124
39 48 23
39 49 258
39 50 245
39 51 137
39 52 226
39 53 114
39 54 204
39 55 24
39 56 192
39 57 14
39 58 130
39 59 93
39 60 196
39 61 79
39 62 58
39 63 4
39 64 215
39 65 105
39 66 134
39 67 240
39 68 75
39 69 267
39 70 92
39 71 263
39 72 156
39 73 192
39 74 26
39 75 237
39 76 99
39 77 216
39 78 236
39 79 89
39 80 227
39 81 223
39 82 182
39 83 202
39 84 52
39 85 132
39 86 101
39 87 35
39 88 158
39 89 84
39 90 15
40 41 198
40 42 93
40 43 112
40 44 33
40 45 186
40 46 234
40 47 217
40 48 172
40 49 202
40 50 132
40 51 126
40 52 99
40 53 111
40 54 7
40 55 170
40 56 1
40 57 196
40 58 96
40 59 181
40 60 184
40 61 121
40 62 123
40 63 134
40 64 64
40 65 84
40 66 99
40 67 90
40 68 260
40 69 248
40 70 106
40 71 52
40 72 127
40 73 262
40 74 194
40 75 99
40 76 269
40 77 39
40 78 231
40 79 149
40 80 34
40 81 114
40 82 23
40 83 25
40 84 13
40 85 268
40 86 133
40 87 27
40 88 91
40 89 268
40 90 191
41 42 232
41 43 20
41 44 81
41 45 136
41 46 174
41 47 80
41 48 180
41 49 93
41 50 109
41 51 136
41 52 42
41 53 177
41 54 196
41 55 200
41 56 14
41 57 92
41 58 28
41 59 82
41 60 122
41 61 240
41 62 177
41 63 91
41 64 250
41 65 245
41 66 95
41 67 101
41 68 166
41 69 122
41 70 215
41 71 206
41 72 202
41 73 136
41 74 67
41 75 118
41 76 30
41 77 153
41 78 47
41 79 85
41 80 10
41 81 18
41 82 2
41 83 67
41 84 117
41 85 127
41 86 196
41 87 68
41 88 73
41 89 235
41 90 78
42 43 39
42 44 140
42 45 140
42 46 225
42 47 191
42 48 14
42 49 177
42 50 8
42 51 264
42 52 224
42 53 109
42 54 188
42 55 177
42 56 156
42 57 43
42 58 47
42 59 157
42 60 170
42 61 30
42 62 257
42 63 23
42 64 140
42 65 3
42 66 12
42 67 43
42 68 62
42 69 216
42 70 136
42 71 67
42 72 8
42 73 256
42 74 213
42 75 33
42 76 157
42 77 100
42 78 8
42 79 157
42 80 153
42 81 63
42 82 62
42 83 172
42 84 97
42 85 116
42 86 197
42 87 256
42 88 253
42 89 125
42 90 30
43 44 253
43 45 90
43 46 105
43 47 229
43 48 61
43 49 241
43 50 256
43 51 75
43 52 5
43 53 224
43 54 84
43 55 110
43 56 20
43 57 0
43 58 64
43 59 153
43 60 249
43 61 152
43 62 130
43 63 224
43 64 79
43 65 69
43 66 55
43 67 34
43 68 193
43 69 259
43 70 97
43 71 34
43 72 99
43 73 76
43 74 153
43 75 63
43 76 134
43 77 265
43 78 11
43 79 259
43 80 68
43 81 7
43 82 225
43 83 100
43 84 196
43 85 52
43 86 190
43 87 28
43 88 235
43 89 211
43 90 219
44 45 144
44 46 12
44 47 20
44 48 146
44 49 41
44 50 50
44 51 77
44 52 36
44 53 203
44 54 15
44 55 253
44 56 58
44 57 164
44 58 242
44 59 67
44 60 240
44 61 26
44 62 84
44 63 213
44 64 74
44 65 99
44 66 198
44 67 22
44 68 72
44 69 80
44 70 181
44 71 195
44 72 157
44 73 84
44 74 255
44 75 163
44 76 217
44 77 183
44 78 165
44 79 189
44 80 88
44 81 90
44 82 203
44 83 206
44 84 0
44 85 87
44 86 215
44 87 134
44 88 243
44 89 4
44 90 117
45 46 15
45 47 165
45 48 226
45 49 59
45 50 45
45 51 16
45 52 133
45 53 223
45 54 240
45 55 181
45 56 167
45 57 217
45 58 219
45 59 25
45 60 11
45 61 141
45 62 191
45 63 136
45 64 192
45 65 158
45 66 19
45 67 125
45 68 23
45 69 167
45 70 20
45 71 90
45 72 2
45 73 215
45 74 240
45 75 249
45 76 30
45 77 87
45 78 205
45 79 81
45 80 159
45 81 182
45 82 179
45 83 222
45 84 247
45 85 60
45 86 77
45 87 191
45 88 200
45 89 217
45 90 221
46 47 135
46 48 167
46 49 138
46 50 212
46 51 116
46 52 190
46 53 58
46 54 216
46 55 180
46 56 83
46 57 179
46 58 145
46 59 26
46 60 237
46 61 109
46 62 172
46 63 232
46 64 201
46 65 238
46 66 158
46 67 183
46 68 94
46 69 3
46 70 65
46 71 226
46 72 206
46 73 130
46 74 261
46 75 38
46 76 129
46 77 35
46 78 257
46 79 15
46 80 16
46 81 146
46 82 98
46 83 198
46 84 9
46 85 268
46 86 226
46 87 262
46 88 74
46 89 24
46 90 257
47 48 220
47 49 42
47 50 249
47 51 19
47 52 269
47 53 55
47 54 262
47 55 241
47 56 257
47 57 116
47 58 149
47 59 264
47 60 146
47 61 23
47 62 38
47 63 69
47 64 87
47 65 238
47 66 71
47 67 145
47 68 222
47 69 233
47 70 22
47 71 150
47 72 189
47 73 175
47 74 208
47 75 95
47 76 140
47 77 156
47 78 218
47 79 13
47 80 20
47 81 102
47 82 184
47 83 70
47 84 228
47 85 190
47 86 28
47 87 159
47 88 256
47 89 76
47 90 20
48 49 150
48 50 222
48 51 232
48 52 262
48 53 120
48 54 148
48 55 269
48 56 212
48 57 62
48 58 8
48 59 12
48 60 174
48 61 25
48 62 57
48 63 30
48 64 170
48 65 197
48 66 148
48 67 4
48 68 37
48 69 68
48 70 97
48 71 240
48 72 9
48 73 265
48 74 96
48 75 190
48 76 163
48 77 43
48 78 264
48 79 28
48 80 241
48 81 76
48 82 173
48 83 77
48 84 124
48 85 81
48 86 234
48 87 24
48 88 150
48 89 260
48 90 60
49 50 66
49 51 76
49 52 60
49 53 122
49 54 70
49 55 176
49 56 119
49 57 34
49 58 136
49 59 150
49 60 8
49 61 226
49 62 8
49 63 131
49 64 13
49 65 87
49 66 126
49 67 37
49 68 147
49 69 189
49 70 106
49 71 184
49 72 78
49 73 237
49 74 98
49 75 44
49 76 121
49 77 56
49 78 21
49 79 29
49 80 259
49 81 232
49 82 129
49 83 37
49 84 192
49 85 230
49 86 43
49 87 141
49 88 2
49 89 204
49 90 121
50 51 72
50 52 244
50 53 12
50 54 76
50 55 265
50 56 101
50 57 214
50 58 22
50 59 115
50 60 96
50 61 148
50 62 162
50 63 239
50 64 233
50 65 79
50 66 159
50 67 32
50 68 243
50 69 234
50 70 196
50 71 86
50 72 200
50 73 109
50 74 3
50 75 0
50 76 75
50 77 116
50 78 219
50 79 23
50 80 235
50 81 87
50 82 214
50 83 48
50 84 132
50 85 156
50 86 7
50 87 1
50 88 21
50 89 107
50 90 33
51 52 116
51 53 68
51 54 87
51 55 100
51 56 9
51 57 209
51 58 37
51 59 157
51 60 17
51 61 182
51 62 63
51 63 156
51 64 48
51 65 88
51 66 251
51 67 50
51 68 0
51 69 86
51 70 216
51 71 97
51 72 139
51 73 168
51 74 209
51 75 128
51 76 135
51 77 76
51 78 173
51 79 108
51 80 48
51 81 155
51 82 30
51 83 179
51 84 61
51 85 72
51 86 21
51 87 37
51 88 68
51 89 157
51 90 192
52 53 224
52 54 116
52 55 130
52 56 205
52 57 111
52 58 262
52 59 266
52 60 255
52 61 150
52 62 255
52 63 239
52 64 100
52 65 175
52 66 80
52 67 247
52 68 123
52 69 34
52 70 226
52 71 186
52 72 173
52 73 200
52 74 247
52 75 183
52 76 22
52 77 232
52 78 151
52 79 27
52 80 77
52 81 175
52 82 247
52 83 97
52 84 62
52 85 261
52 86 149
52 87 192
52 88 36
52 89 181
52 90 154
53 54 34
53 55 50
53 56 231
53 57 29
53 58 44
53 59 251
53 60 60
53 61 178
53 62 91
53 63 115
53 64 260
53 65 212
53 66 148
53 67 138
53 68 162
53 69 7
53 70 242
53 71 208
53 72 217
53 73 183
53 74 257
53 75 256
53 76 46
53 77 51
53 78 159
53 79 233
53 80 27
53 81 222
53 82 156
53 83 132
53 84 105
53 85 5
53 86 163
53 87 149
53 88 6
53 89 240
53 90 220
54 55 140
54 56 211
54 57 16
54 58 59
54 59 74
54 60 207
54 61 221
54 62 267
54 63 261
54 64 113
54 65 6
54 66 253
54 67 67
54 68 119
54 69 85
54 70 72
54 71 68
54 72 237
54 73 70
54 74 126
54 75 263
54 76 77
54 77 96
54 78 114
54 79 121
54 80 157
54 81 105
54 82 57
54 83 119
54 84 260
54 85 32
54 86 10
54 87 169
54 88 27
54 89 252
54 90 8
55 56 137
55 57 10
55 58 22
55 59 265
55 60 170
55 61 109
55 62 121
55 63 135
55 64 137
55 65 45
55 66 196
55 67 169
55 68 82
55 69 93
55 70 105
55 71 74
55 72 172
55 73 166
55 74 203
55 75 76
55 76 157
55 77 254
55 78 89
55 79 26
55 80 38
55 81 118
55 82 121
55 83 141
55 84 133
55 85 63
55 86 82
55 87 143
55 88 53
55 89 47
55 90 267
56 57 231
56 58 158
56 59 95
56 60 103
56 61 176
56 62 245
56 63 101
56 64 85
56 65 34
56 66 139
56 67 131
56 68 83
56 69 38
56 70 38
56 71 80
56 72 125
56 73 14
56 74 173
56 75 226
56 76 116
56 77 165
56 78 48
56 79 251
56 80 17
56 81 81
56 82 263
56 83 72
56 84 264
56 85 247
56 86 267
56 87 132
56 88 50
56 89 84
56 90 117
57 58 93
57 59 163
57 60 218
57 61 243
57 62 97
57 63 42
57 64 206
57 65 10
57 66 222
57 67 87
57 68 57
57 69 55
57 70 132
57 71 246
57 72 159
57 73 186
57 74 232
57 75 28
57 76 25
57 77 24
57 78 180
57 79 238
57 80 166
57 81 169
57 82 263
57 83 72
57 84 260
57 85 171
57 86 105
57 87 110
57 88 107
57 89 219
57 90 263
58 59 103
58 60 22
58 61 36
58 62 44
58 63 71
58 64 6
58 65 71
58 66 260
58 67 230
58 68 235
58 69 25
58 70 256
58 71 82
58 72 265
58 73 31
58 74 205
58 75 29
58 76 18
58 77 127
58 78 22
58 79 15
58 80 229
58 81 229
58 82 81
58 83 5
58 84 254
58 85 106
58 86 160
58 87 40
58 88 33
58 89 167
58 90 202
59 60 142
59 61 175
59 62 111
59 63 252
59 64 165
59 65 236
59 66 58
59 67 70
59 68 60
59 69 185
59 70 29
59 71 183
59 72 117
59 73 50
59 74 48
59 75 10
59 76 191
59 77 60
59 78 22
59 79 25
59 80 150
59 81 55
59 82 221
59 83 200
59 84 19
59 85 187
59 86 240
59 87 74
59 88 14
59 89 14
59 90 32
60 61 139
60 62 259
60 63 269
60 64 237
60 65 133
60 66 66
60 67 36
60 68 193
60 69 128
60 70 199
60 71 134
60 72 208
60 73 15
60 74 95
60 75 160
60 76 191
60 77 109
60 78 152
60 79 66
60 80 43
60 81 100
60 82 99
60 83 219
60 84 40
60 85 193
60 86 210
60 87 111
60 88 48
60 89 41
60 90 2
61 62 244
61 63 131
61 64 250
61 65 31
61 66 5
61 67 55
61 68 35
61 69 171
61 70 40
61 71 54
61 72 204
61 73 97
61 74 146
61 75 95
61 76 248
61 77 49
61 78 261
61 79 173
61 80 174
61 81 116
61 82 178
61 83 5
61 84 99
61 85 126
61 86 166
61 87 48
61 88 69
61 89 74
61 90 158
62 63 202
62 64 188
62 65 170
62 66 266
62 67 152
62 68 243
62 69 25
62 70 82
62 71 72
62 72 16
62 73 22
62 74 155
62 75 49
62 76 26
62 77 257
62 78 98
62 79 207
62 80 224
62 81 67
62 82 40
62 83 267
62 84 209
62 85 192
62 86 27
62 87 119
62 88 156
62 89 262
62 90 163
63 64 124
63 65 230
63 66 99
63 67 66
63 68 227
63 69 12
63 70 252
63 71 156
63 72 138
63 73 140
63 74 180
63 75 237
63 76 79
63 77 80
63 78 88
63 79 45
63 80 16
63 81 42
63 82 219
63 83 55
63 84 168
63 85 12
63 86 199
63 87 15
63 88 110
63 89 81
63 90 124
64 65 90
64 66 34
64 67 131
64 68 16
64 69 24
64 70 269
64 71 258
64 72 64
64 73 248
64 74 130
64 75 174
64 76 193
64 77 42
64 78 214
64 79 212
64 80 204
64 81 179
64 82 2
64 83 187
64 84 52
64 85 72
64 86 61
64 87 154
64 88 0
64 89 132
64 90 46
65 66 263
65 67 59
65 68 11
65 69 221
65 70 29
65 71 31
65 72 181
65 73 12
65 74 202
65 75 193
65 76 122
65 77 61
65 78 231
65 79 130
65 80 143
65 81 182
65 82 243
65 83 27
65 84 197
65 85 240
65 86 181
65 87 162
65 88 116
65 89 152
65 90 113
66 67 26
66 68 110
66 69 210
66 70 254
66 71 64
66 72 4
66 73 216
66 74 55
66 75 195
66 76 61
66 77 60
66 78 31
66 79 181
66 80 246
66 81 4
66 82 198
66 83 28
66 84 246
66 85 103
66 86 4
66 87 211
66 88 49
66 89 93
66 90 133
67 68 38
67 69 154
67 70 124
67 71 68
67 72 166
67 73 14
67 74 68
67 75 9
67 76 234
67 77 118
67 78 21
67 79 209
67 80 242
67 81 83
67 82 178
67 83 85
67 84 80
67 85 75
67 86 213
67 87 85
67 88 207
67 89 228
67 90 142
68 69 40
68 70 240
68 71 44
68 72 156
68 73 207
68 74 173
68 75 231
68 76 67
68 77 126
68 78 260
68 79 34
68 80 115
68 81 96
68 82 3
68 83 50
68 84 227
68 85 34
68 86 191
68 87 167
68 88 128
68 89 6
68 90 242
69 70 32
69 71 82
69 72 11
69 73 205
69 74 96
69 75 81
69 76 216
69 77 127
69 78 3
69 79 185
69 80 41
69 81 119
69 82 252
69 83 35
69 84 262
69 85 31
69 86 258
69 87 88
69 88 190
69 89 5
69 90 198
70 71 193
70 72 93
70 73 93
70 74 147
70 75 211
70 76 240
70 77 124
70 78 35
70 79 229
70 80 71
70 81 245
70 82 21
70 83 62
70 84 220
70 85 154
70 86 39
70 87 77
70 88 71
70 89 222
70 90 111
71 72 227
71 73 37
71 74 128
71 75 50
71 76 120
71 77 223
71 78 115
71 79 105
71 80 213
71 81 83
71 82 52
71 83 157
71 84 13
71 85 119
71 86 138
71 87 57
71 88 143
71 89 237
71 90 258
72 73 42
72 74 119
72 75 225
72 76 108
72 77 124
72 78 128
72 79 256
72 80 92
72 81 234
72 82 43
72 83 249
72 84 50
72 85 113
72 86 223
72 87 157
72 88 33
72 89 126
72 90 150
73 74 4
73 75 174
73 76 113
73 77 75
73 78 135
73 79 183
73 80 1
73 81 129
73 82 46
73 83 184
73 84 105
73 85 53
73 86 128
73 87 163
73 88 226
73 89 226
73 90 177
74 75 85
74 76 44
74 77 71
74 78 107
74 79 181
74 80 234
74 81 19
74 82 86
74 83 140
74 84 39
74 85 263
74 86 212
74 87 90
74 88 48
74 89 160
74 90 243
75 76 75
75 77 142
75 78 214
75 79 162
75 80 66
75 81 189
75 82 179
75 83 153
75 84 18
75 85 172
75 86 14
75 87 143
75 88 144
75 89 31
75 90 204
76 77 229
76 78 32
76 79 163
76 80 167
76 81 155
76 82 19
76 83 63
76 84 79
76 85 188
76 86 53
76 87 193
76 88 0
76 89 81
76 90 33
77 78 231
77 79 62
77 80 203
77 81 238
77 82 260
77 83 109
77 84 32
77 85 37
77 86 79
77 87 78
77 88 110
77 89 108
77 90 94
78 79 93
78 80 168
78 81 66
78 82 195
78 83 201
78 84 228
78 85 143
78 86 31
78 87 118
78 88 79
78 89 175
78 90 16
79 80 174
79 81 10
79 82 75
79 83 193
79 84 134
79 85 123
79 86 248
79 87 50
79 88 259
79 89 152
79 90 41
80 81 112
80 82 6
80 83 17
80 84 217
80 85 210
80 86 50
80 87 90
80 88 230
80 89 167
80 90 42
81 82 257
81 83 228
81 84 233
81 85 16
81 86 200
81 87 20
81 88 152
81 89 135
81 90 174
82 83 22
82 84 15
82 85 132
82 86 79
82 87 22
82 88 138
82 89 57
82 90 48
83 84 216
83 85 78
83 86 19
83 87 5
83 88 199
83 89 236
83 90 138
84 85 263
84 86 205
84 87 151
84 88 188
84 89 231
84 90 236
85 86 62
85 87 47
85 88 153
85 89 78
85 90 29
86 87 138
86 88 166
86 89 32
86 90 198
87 88 252
87 89 130
87 90 106
88 89 253
88 90 197
89 90 211
